m = 3;
n = 7;
l = [15, 13, 13, ];
s = [3, 2, 6, 8, 5, 4, 4, ];
w = [2, 3, 4, 4, 5, 6, 8, ];
length = [4, 4, 4, ];
max_length = 4;
D = [|0, 3, 3, 6, 5, 6, 6, 2, |3, 0, 4, 3, 4, 7, 7, 3, |3, 4, 0, 7, 6, 3, 5, 3, |6, 3, 7, 0, 3, 6, 6, 4, |5, 4, 6, 3, 0, 3, 3, 3, |6, 7, 3, 6, 3, 0, 2, 4, |6, 7, 5, 6, 3, 2, 0, 4, |2, 3, 3, 4, 3, 4, 4, 0, |];
num_raw_combination = 8;
raw_combination = [|0, 0, 0, |1, 0, 0, |0, 1, 0, |1, 1, 0, |0, 0, 1, |1, 0, 1, |0, 1, 1, |1, 1, 1, |];
